Solver command line: ['/usr/local/bin/gurobi.sh']

Set parameter WLSAccessID
Set parameter WLSSecret
Set parameter LicenseID to value 2606900
Academic license 2606900 - for non-commercial use only - registered to so___@htwk-leipzig.de
Read LP format model from file /var/folders/jf/5sh4zzv94dxbcz8g7tg2jq5h0000gn/T/tmp92kmsr97.pyomo.lp
Reading time = 4.02 seconds
objective: 948674 rows, 878399 columns, 2134496 nonzeros
Set parameter TimeLimit to value 5000
Set parameter MIPGap to value 0.08
Gurobi Optimizer version 12.0.1 build v12.0.1rc0 (mac64[rosetta2] - Darwin 24.3.0 24D70)

CPU model: Apple M3
Thread count: 8 physical cores, 8 logical processors, using up to 8 threads

Non-default parameters:
TimeLimit  5000
MIPGap  0.08

Academic license 2606900 - for non-commercial use only - registered to so___@htwk-leipzig.de
Optimize a model with 948674 rows, 878399 columns and 2134496 nonzeros
Model fingerprint: 0xe250001f
Model has 8783 quadratic constraints
Variable types: 755424 continuous, 122975 integer (105408 binary)
Coefficient statistics:
  Matrix range     [6e-03, 1e+03]
  QMatrix range    [1e+00, 1e+00]
  Objective range  [1e-02, 4e+02]
  Bounds range     [1e+00, 3e+00]
  RHS range        [8e-05, 1e+04]
Presolve removed 781800 rows and 676389 columns
Presolve time: 0.83s
Presolved: 166874 rows, 202010 columns, 553336 nonzeros
Variable types: 131741 continuous, 70269 integer (61485 binary)
Performing another presolve...
Presolve removed 70271 rows and 70271 columns (presolve time = 9s)...
Presolve removed 70271 rows and 70271 columns
Presolve time: 9.30s
Deterministic concurrent LP optimizer: primal and dual simplex
Showing primal log only...


Root simplex log...

Iteration    Objective       Primal Inf.    Dual Inf.      Time
       0    1.9447399e+07   1.164760e+08   8.355153e+13     12s
Concurrent spin time: 0.01s

Solved with dual simplex

Root simplex log...

Iteration    Objective       Primal Inf.    Dual Inf.      Time
   64721    1.2810020e+07   0.000000e+00   0.000000e+00     14s

Root relaxation: objective 1.281002e+07, 64721 iterations, 2.78 seconds (1.57 work units)
Total elapsed time = 13.98s (DegenMoves)

    Nodes    |    Current Node    |     Objective Bounds      |     Work
 Expl Unexpl |  Obj  Depth IntInf | Incumbent    BestBd   Gap | It/Node Time

     0     0 1.2810e+07    0  462          - 1.2810e+07      -     -   17s
     0     0 1.2814e+07    0  580          - 1.2814e+07      -     -   72s
     0     0 1.2814e+07    0  586          - 1.2814e+07      -     -   74s
     0     0 1.2814e+07    0  587          - 1.2814e+07      -     -   74s
     0     0 1.2816e+07    0  508          - 1.2816e+07      -     -   76s
     0     0 1.2816e+07    0  524          - 1.2816e+07      -     -   78s
     0     0 1.2816e+07    0  522          - 1.2816e+07      -     -   78s
     0     0 1.2816e+07    0  524          - 1.2816e+07      -     -   78s
     0     0 1.2816e+07    0  570          - 1.2816e+07      -     -   79s
     0     0 1.2816e+07    0  569          - 1.2816e+07      -     -   81s
     0     0 1.2816e+07    0  573          - 1.2816e+07      -     -   81s
     0     0 1.2816e+07    0  572          - 1.2816e+07      -     -   82s
     0     0 1.2817e+07    0  542          - 1.2817e+07      -     -   83s
     0     0 1.2817e+07    0  553          - 1.2817e+07      -     -   83s
     0     0 1.2817e+07    0  556          - 1.2817e+07      -     -   84s
     0     0 1.2817e+07    0  561          - 1.2817e+07      -     -   84s
     0     0 1.2817e+07    0  529          - 1.2817e+07      -     -   85s
     0     0 1.2817e+07    0  541          - 1.2817e+07      -     -   86s
     0     0 1.2817e+07    0  540          - 1.2817e+07      -     -   86s
     0     0 1.2817e+07    0  538          - 1.2817e+07      -     -   87s
     0     0 1.2817e+07    0  528          - 1.2817e+07      -     -   88s
     0     0 1.2817e+07    0  539          - 1.2817e+07      -     -   89s
     0     0 1.2817e+07    0  543          - 1.2817e+07      -     -   89s
     0     0 1.2817e+07    0  548          - 1.2817e+07      -     -   90s
     0     0 1.2817e+07    0  544          - 1.2817e+07      -     -   91s
     0     0 1.2817e+07    0  543          - 1.2817e+07      -     -   92s
     0     0 1.2817e+07    0  537          - 1.2817e+07      -     -   93s
     0     0 1.2817e+07    0  422          - 1.2817e+07      -     -   95s
     0     2 1.2817e+07    0  406          - 1.2817e+07      -     -  109s
     7    16 1.2818e+07    3  438          - 1.2817e+07      -   228  110s
    63   143 1.2818e+07    8  452          - 1.2817e+07      -  61.4  115s
   142   374 1.2818e+07   14  450          - 1.2817e+07      -  29.5  121s
   373   861 1.2818e+07   28  450          - 1.2817e+07      -  11.9  134s
   860  1939 1.2818e+07   66  446          - 1.2817e+07      -   8.7  147s
  1938  2541 1.2819e+07  175  433          - 1.2817e+07      -   8.5  156s
  2540  3101 1.2819e+07  230  430          - 1.2817e+07      -   8.2  164s
  3100  3677 1.2819e+07  286  415          - 1.2817e+07      -   8.3  172s
  3676  4159 1.2820e+07  340  413          - 1.2817e+07      -   8.0  179s
  4158  4591 1.2820e+07  381  391          - 1.2817e+07      -   8.1  185s
  4590  5035 1.2820e+07  404  389          - 1.2817e+07      -   7.7  193s
  5034  5476 1.2820e+07  458  381          - 1.2817e+07      -   7.5  200s
  5475  6138 1.2820e+07  491  369          - 1.2817e+07      -   7.4  208s
  6137  6613 1.2821e+07  569  360          - 1.2817e+07      -   7.0  214s
  6612  7192 1.2821e+07  627  356          - 1.2817e+07      -   7.3  222s
  7199  7751 1.2821e+07  696  349          - 1.2817e+07      -   7.2  230s
  7785  7753 1.2820e+07  476  441          - 1.2817e+07      -   7.0  288s
  7786  7754 1.2818e+07  171  552          - 1.2817e+07      -   7.0  291s
  7791  7757 1.2820e+07  556  619          - 1.2817e+07      -   7.0  295s
  7799  7763 1.2819e+07  278  483          - 1.2818e+07      -   7.0  301s
  7804  7766 1.2821e+07  790  480          - 1.2818e+07      -   7.0  306s
  7808  7769 1.2820e+07  394  496          - 1.2818e+07      -   7.0  312s
  7813  7772 1.2820e+07  451  519          - 1.2818e+07      -   7.0  320s
  7816  7774 1.2818e+07   90  510          - 1.2818e+07      -   7.0  325s
  7821  7777 1.2818e+07  132  505          - 1.2818e+07      -   7.0  331s
  7823  7779 1.2819e+07  214  516          - 1.2818e+07      -   7.0  338s
  7825  7780 1.2818e+07  109  520          - 1.2818e+07      -   7.0  344s
  7826  7781 1.2818e+07   44  514          - 1.2818e+07      -   7.0  345s
  7830  7783 1.2820e+07  424  508          - 1.2818e+07      -   7.0  350s
  7837  7790 1.2818e+07   28 13175          - 1.2818e+07      -  17.5  355s
  7838  7790 1.2821e+07  734  441          - 1.2818e+07      -  17.5  411s
  7841  7792 1.2821e+07  636  596          - 1.2818e+07      -  17.5  415s
  7849  7798 1.2819e+07  395  658          - 1.2818e+07      -  17.5  420s
  7852  7800 1.2819e+07  276  483          - 1.2818e+07      -  17.5  425s
  7855  7802 1.2818e+07  135  481          - 1.2818e+07      -  17.5  430s
  7858  7804 1.2820e+07  498  485          - 1.2818e+07      -  17.5  435s
  7860  7805 1.2818e+07  161  491          - 1.2818e+07      -  17.5  440s
  7862  7806 1.2819e+07  189  497          - 1.2818e+07      -  17.5  445s
  7868  7810 1.2818e+07   89  514          - 1.2818e+07      -  17.5  451s
  7870  7812 1.2821e+07  715  513          - 1.2818e+07      -  17.5  457s
  7872  7813 1.2819e+07  146  508          - 1.2818e+07      -  17.5  464s
  7873  7814 1.2821e+07  711  510          - 1.2818e+07      -  17.5  466s
  7874  7814 1.2818e+07  135  513          - 1.2818e+07      -  17.5  470s
  7878  7817 1.2820e+07  466  510          - 1.2818e+07      -  17.4  476s
  7880  7818 1.2819e+07  231  421          - 1.2818e+07      -  17.4  481s
  7881  7819 1.2818e+07   13  421          - 1.2818e+07      -  17.4  491s
H 7882  7431                    1.465903e+07 1.2818e+07  12.6%  38.2  495s
H 7887  7061                    1.465777e+07 1.2818e+07  12.5%  38.1  496s
  7904  7128 1.2819e+07   33  387 1.4658e+07 1.2818e+07  12.5%  38.1  503s
  7961  7203 1.2819e+07   37  380 1.4658e+07 1.2818e+07  12.5%  38.0  511s
  8055  7331 1.2819e+07   43  367 1.4658e+07 1.2818e+07  12.5%  37.8  527s
H 8069  6972                    1.463894e+07 1.2818e+07  12.4%  37.8  528s
  8214  7261 1.2819e+07   54  376 1.4639e+07 1.2818e+07  12.4%  38.2  556s
H 8232  6919                    1.463357e+07 1.2818e+07  12.4%  38.2  556s
H 8275  6586                    1.463129e+07 1.2818e+07  12.4%  38.1  556s
H 8406  6239                    1.362249e+07 1.2818e+07  5.90%  38.0  557s

Cutting planes:
  Gomory: 341
  Cover: 247
  Implied bound: 102
  Projected implied bound: 43
  Clique: 4
  MIR: 566
  Mixing: 10
  StrongCG: 4
  Flow cover: 442
  RLT: 22
  Relax-and-lift: 100

Explored 8551 nodes (324152 simplex iterations) in 557.26 seconds (224.30 work units)
Thread count was 8 (of 8 available processors)

Solution count 4: 1.36225e+07 1.46336e+07 1.46578e+07 1.4659e+07 

Optimal solution found (tolerance 8.00e-02)
Best objective 1.362248920010e+07, best bound 1.281840284955e+07, gap 5.9026%

